c User generated cnf file
p cnf 15 26
1 2 -6 0 
11 -13 11 0 
14 -3 8 0 
3 8 -14 0 
11 6 -5 0 
9 10 -12 0 
9 15 -2 0 
1 7 -9 0 
7 -13 4 0 
6 -12 1 0 
14 9 -14 0 
13 8 -12 0 
9 -15 5 0 
12 -6 9 0 
3 9 -12 0 
1 -3 11 0 
9 2 -12 0 
10 -10 13 0 
14 -4 3 0 
11 3 -15 0 
7 3 -13 0 
13 -4 3 0 
10 -3 3 0 
11 1 -13 0 
14 -1 5 0 
5 2 -8 0 
